(set-logic ALL)
(declare-fun i1 () Int)
(declare-fun it787 () Int)
(declare-fun it788 () Int)
(declare-fun it15 () Int)
(declare-fun it14 () Int)
(declare-fun it789 () Int)
(declare-fun it13 () Int)
(declare-fun it790 () Int)
(declare-fun bt841 () Bool)
(declare-fun bt842 () Bool)
(declare-fun bt843 () Bool)
(declare-fun bt844 () Bool)
(declare-fun it17 () Int)
(declare-fun it16 () Int)
(declare-fun it18 () Int)
(declare-fun bt25 () Bool)
(declare-fun bt28 () Bool)
(declare-fun bt26 () Bool)
(declare-fun bt27 () Bool)
(declare-fun it796 () Int)
(declare-fun it797 () Int)
(declare-fun it798 () Int)
(declare-fun it799 () Int)
(declare-fun bt845 () Bool)
(declare-fun bt846 () Bool)
(declare-fun bt847 () Bool)
(declare-fun bt848 () Bool)
(declare-fun it801 () Int)
(declare-fun it800 () Int)
(declare-fun bt849 () Bool)
(declare-fun bt852 () Bool)
(declare-fun bt850 () Bool)
(declare-fun it802 () Int)
(declare-fun bt851 () Bool)
(declare-fun it871 () Int)
(declare-fun it872 () Int)
(declare-fun it873 () Int)
(declare-fun it874 () Int)
(declare-fun bt917 () Bool)
(declare-fun bt918 () Bool)
(declare-fun bt919 () Bool)
(declare-fun bt920 () Bool)
(declare-fun it356 () Int)
(assert (= (+ i1 (- 1)) 0))
(assert (= (+ it787 (- 2)) 0))
(assert (= (+ (* it15 (- 1)) it788) 0))
(assert (= (+ it789 (* it14 (- 1))) 0))
(assert (= (+ it790 (* it13 (- 1))) 0))
(assert (or (not bt841) (and false bt841)))
(assert (or bt842 (and false (not bt842))))
(assert (or (not bt843) (and false bt843)))
(assert (or (not bt844) (and false bt844)))
(assert (and bt27
     (not bt26)
     (not bt28)
     (not bt25)
     (= (+ it18 (- 1)) 0)
     (not bt841)
     (= (+ (* it16 (- 1)) it790) 0)
     bt842
     (not bt844)
     (not bt843)
     (= (+ it789 (* it17 (- 1))) 0)
     (= (+ it787 (- 2)) 0)))
(assert (= (+ it796 (- 2)) 0))
(assert (= (+ (* it18 (- 1)) it797) 0))
(assert (= (+ (* it17 (- 1)) it798) 0))
(assert (= (+ it799 (* it16 (- 1))) 0))
(assert (or (and (not bt27) (not bt845)) (and bt27 bt845)))
(assert (or (and bt28 bt846) (and (not bt28) (not bt846))))
(assert (or (and bt26 bt847) (and (not bt26) (not bt847))))
(assert (or (and bt25 bt848) (and (not bt25) (not bt848))))
(assert (and (not bt851)
     (<= (+ it799 (* it797 (- 1))) 0)
     (= (+ it799 (* it802 (- 1))) 0)
     (not bt847)
     (not bt850)
     bt852
     (not bt849)
     (= (+ (* it800 (- 1)) it797) 0)
     (not bt848)
     (= (+ it796 (- 2)) 0)
     (= (+ (* it801 (- 1)) it798) 0)
     bt845
     (not bt846)))
(assert (= (+ it871 (- 2)) 0))
(assert (= (+ it872 (* it800 (- 1))) 0))
(assert (= (+ it873 (* it801 (- 1))) 0))
(assert (= (+ (* it802 (- 1)) it874) 0))
(assert (or (and bt917 bt850) (and (not bt850) (not bt917))))
(assert (or (and bt918 bt849) (and (not bt849) (not bt918))))
(assert (or (and bt919 bt851) (and (not bt851) (not bt919))))
(assert (or (and (not bt920) (not bt852)) (and bt920 bt852)))
(assert (let ((a!1 (+ (* (+ 0 it872) (exp 3 (+ it356 (- 1))) (+ 0 (- 1)))
              (+ 0 it874))))
  (and (not bt919)
       (> (+ (* it872 (- 1)) it874) 0)
       (> a!1 (+ 0 0))
       bt917
       (>= (+ it871 (- 2)) 0)
       (>= (+ (* it871 (- 1)) 2) 0)
       (not bt920)
       (>= (+ it356 (- 1)) 0)
       (not bt918)
       (>= (* it873 (- 1)) 0))))
(check-sat)
